WARNING: for repeatability, setting FPU to use double precision
============================[ Problem Statistics ]=============================
|                                                                             |
|  Number of variables:        227653                                         |
|  Number of clauses:          526506                                         |
|  Parse time:                   0.31 s                                       |
|                                                                             |
============================[ Search Statistics ]==============================
| Conflicts |          ORIGINAL         |          LEARNT          | Progress |
|           |    Vars  Clauses Literals |    Limit  Clauses Lit/Cl |          |
===============================================================================
|       100 |  127876   502876  1130828 |   184387      100     12 | 43.829 % |
|       250 |  127876   502876  1130828 |   202826      250     34 | 43.829 % |
|       475 |  127876   502876  1130828 |   223109      475     41 | 43.829 % |
===============================================================================
restarts              : 6
conflicts             : 711            (734 /sec)
decisions             : 15350          (0.00 % random) (15856 /sec)
propagations          : 2670566        (2758678 /sec)
conflict literals     : 28597          (4.00 % deleted)
Memory used           : 57.00 MB
CPU time              : 0.96806 s

SATISFIABLE
